11
0 237 65 171 616 325 376 197 473 694 213
237 0 212 154 844 419 260 287 687 902 185
65 212 0 193 632 275 396 139 532 694 150
171 154 193 0 778 463 205 323 550 864 270
616 844 632 778 0 568 972 609 484 181 726
325 419 275 463 568 0 656 140 684 554 237
376 260 396 205 972 656 0 516 677 1067 437
197 287 139 323 609 140 516 0 617 634 121
473 687 532 550 484 684 677 617 0 655 681
694 902 694 864 181 554 1067 634 655 0 755
213 185 150 270 726 237 437 121 681 755 0
